667
2189
3332
2761
706
2349
1938
2955
3226
1194
795
3104
2589
2716
3705
1823
1991
2722
1322
2469
813
3635
2871
1534
1960
2303
1822
949
2948
3447
2492
1645
223
1710
2745
446
1511
1591
2911
2355
2003
3516
1461
1813
1322
2194
2660
1565
2899
3479
361
926
3447
2605
2696
759
656
612
2488
1499

15726
102855
167897
124507
304

361
2361
3854
2858
7

5664.6

12
76
124
92
1
103
53
119
149
27
9
135
82
102
150
77
87
125
54
102
15
149
134
59
76
80
64
24
144
148
79
76
10
79
122
4
34
66
105
74
75
126
49
43
17
104
88
74
140
143
10
37
131
114
130
30
7
18
98
67
